100
128
32
59
26
64
50
27
21
4
39
35
10
64
51
26
32
12
62
10
19
30
64
15
11
12
21
14
31
46
39
8
36
16
30
64
56
9
12
7
14
35
15
5
26
53
45
38
41
30
30
18
32
29
27
19
21
22
17
38
45
47
25
25
23
40
30
37
30
44
39
52
2
22
30
24
62
22
39
21
52
39
45
16
35
23
48
29
49
20
19
56
27
23
31
40
37
59
34
40
54
32